GLPSOL--GLPK LP/MIP Solver 5.0
Parameter(s) specified in the command line:
 --lp ../modeles/20_129.lp --log 20_129.log
Reading problem data from '../modeles/20_129.lp'...
2661 rows, 5200 columns, 18160 non-zeros
2580 integer variables, all of which are binary
7887 lines were read
GLPK Integer Optimizer 5.0
2661 rows, 5200 columns, 18160 non-zeros
2580 integer variables, all of which are binary
Preprocessing...
2520 constraint coefficient(s) were reduced
2661 rows, 5180 columns, 18140 non-zeros
2580 integer variables, all of which are binary
Scaling...
 A: min|aij| =  2.404e-04  max|aij| =  4.000e+00  ratio =  1.664e+04
GM: min|aij| =  8.805e-02  max|aij| =  1.136e+01  ratio =  1.290e+02
EQ: min|aij| =  7.752e-03  max|aij| =  1.000e+00  ratio =  1.290e+02
2N: min|aij| =  7.692e-03  max|aij| =  1.769e+00  ratio =  2.299e+02
Constructing initial basis...
Size of triangular part is 2661
Solving LP relaxation...
GLPK Simplex Optimizer 5.0
2661 rows, 5180 columns, 18140 non-zeros
      0: obj =   4.000000000e+01 inf =   9.950e+01 (41)
    219: obj =   4.976262019e-01 inf =   0.000e+00 (0)
*   813: obj =  -4.463039867e+00 inf =   5.084e-14 (0) 1
OPTIMAL LP SOLUTION FOUND
Integer optimization begins...
Long-step dual simplex will be used
+   813: mip =     not found yet >=              -inf        (1; 0)
+   983: >>>>>  -4.463039867e+00 >=  -4.463039867e+00 < 0.1% (165; 0)
+   983: mip =  -4.463039867e+00 >=     tree is empty   0.0% (0; 329)
INTEGER OPTIMAL SOLUTION FOUND
Time used:   0.9 secs
Memory used: 7.6 Mb (7917104 bytes)
